LibMLKEM/why3-cvc5/mlkem.adb_1329_47_range_check_1.smt2
;; produced by cvc5.drv ;;
(set-logic ALL)
(set-info :smt-lib-version 2.6)
;;; generated by SMT-LIB2 driver
;;; SMT-LIB2 driver: bit-vectors, common part
;;; SMT-LIB2: integer arithmetic
(define-fun __cdiv ((x Int) (y Int)) Int (ite (>= x 0) (div x y) (- (div (- x) y))))
(define-fun __cmod ((x Int) (y Int)) Int (ite (>= x 0) (mod x y) (- (mod (- x) y))))
;; "pow2"
(declare-fun pow2 (Int) Int)

(declare-const two_power_size_minus_one Int)

;; "two_power_size_minus_one_val"
(assert (= two_power_size_minus_one (pow2 (- 8 1))))

;; "min"
(define-fun min ((x Int) (y Int)) Int
  (ite (<= x y) x y))

;; "max"
(define-fun max ((x Int) (y Int)) Int
  (ite (<= x y) y x))

;; "Min_r"
(assert (forall ((x Int) (y Int)) (=> (<= y x) (= (min x y) y))))

;; "Max_l"
(assert (forall ((x Int) (y Int)) (=> (<= y x) (= (max x y) x))))

;; "Min_comm"
(assert (forall ((x Int) (y Int)) (= (min x y) (min y x))))

;; "Max_comm"
(assert (forall ((x Int) (y Int)) (= (max x y) (max y x))))

;; "Min_assoc"
(assert
  (forall ((x Int) (y Int) (z Int)) (= (min (min x y) z) (min x (min y z)))))

;; "Max_assoc"
(assert
  (forall ((x Int) (y Int) (z Int)) (= (max (max x y) z) (max x (max y z)))))

(declare-const two_power_size_minus_one1 Int)

;; "two_power_size_minus_one_val"
(assert (= two_power_size_minus_one1 (pow2 (- 16 1))))

(declare-sort integer 0)

;; "integer'int"
(declare-fun integerqtint (integer) Int)

;; "integer'axiom"
(assert
  (forall ((i integer))
    (and
      (<= (- 2147483648) (integerqtint i))
      (<= (integerqtint i) 2147483647))))

;; "in_range"
(define-fun in_range ((x Int)) Bool
  (and (<= (- 2147483648) x) (<= x 2147483647)))

;; "in_range"
(define-fun in_range1 ((x Int)) Bool
  (and (<= 0 x) (<= x 2147483647)))

;; "to_rep"
(define-fun to_rep ((x integer)) Int
  (integerqtint x))

;; "of_rep"
(declare-fun of_rep (Int) integer)

;; "inversion_axiom"
(assert
  (forall ((x integer)) (! (= (of_rep (to_rep x)) x) :pattern ((to_rep x)) )))

;; "range_axiom"
(assert
  (forall ((x integer)) (! (in_range (to_rep x)) :pattern ((to_rep x)) )))

;; "coerce_axiom"
(assert
  (forall ((x Int))
    (! (=> (in_range x) (= (to_rep (of_rep x)) x)) :pattern ((to_rep
                                                               (of_rep x))) )))

(declare-sort byte 0)

;; "to_rep"
(declare-fun to_rep1 (byte) (_ BitVec 8))

;; "of_rep"
(declare-fun of_rep1 ((_ BitVec 8)) byte)

;; "inversion_axiom"
(assert
  (forall ((x byte)) (! (= (of_rep1 (to_rep1 x)) x) :pattern ((to_rep1 x)) )))

;; "range_axiom"
(assert true)

;; "coerce_axiom"
(assert
  (forall ((x (_ BitVec 8)))
    (! (= (to_rep1 (of_rep1 x)) x) :pattern ((to_rep1 (of_rep1 x))) )))

(declare-sort map1 0)

;; "has_bounds"
(declare-fun has_bounds (map1
  Int
  Int) Bool)

;; "get"
(declare-fun get (map1
  Int) byte)

(declare-const b map1)

(declare-const two_power_size_minus_one2 Int)

;; "two_power_size_minus_one_val"
(assert (= two_power_size_minus_one2 (pow2 (- 64 1))))

(declare-sort unsigned_64 0)

;; "to_rep"
(declare-fun to_rep2 (unsigned_64) (_ BitVec 64))

;; "of_rep"
(declare-fun of_rep2 ((_ BitVec 64)) unsigned_64)

;; "inversion_axiom"
(assert
  (forall ((x unsigned_64))
    (! (= (of_rep2 (to_rep2 x)) x) :pattern ((to_rep2 x)) )))

;; "range_axiom"
(assert true)

;; "coerce_axiom"
(assert
  (forall ((x (_ BitVec 64)))
    (! (= (to_rep2 (of_rep2 x)) x) :pattern ((to_rep2 (of_rep2 x))) )))

(declare-sort map2 0)

;; "has_bounds"
(declare-fun has_bounds1 (map2
  (_ BitVec 8)
  (_ BitVec 8)
  (_ BitVec 8)
  (_ BitVec 8)) Bool)

(declare-sort byte_absorption_number 0)

;; "byte_absorption_number'int"
(declare-fun byte_absorption_numberqtint (byte_absorption_number) Int)

;; "byte_absorption_number'axiom"
(assert
  (forall ((i byte_absorption_number))
    (and
      (<= 0 (byte_absorption_numberqtint i))
      (<= (byte_absorption_numberqtint i) 199))))

;; "in_range"
(define-fun in_range2 ((x Int)) Bool
  (and (<= 0 x) (<= x 199)))

;; "to_rep"
(define-fun to_rep3 ((x byte_absorption_number)) Int
  (byte_absorption_numberqtint x))

;; "of_rep"
(declare-fun of_rep3 (Int) byte_absorption_number)

;; "inversion_axiom"
(assert
  (forall ((x byte_absorption_number))
    (! (= (of_rep3 (to_rep3 x)) x) :pattern ((to_rep3 x)) )))

;; "range_axiom"
(assert
  (forall ((x byte_absorption_number))
    (! (in_range2 (to_rep3 x)) :pattern ((to_rep3 x)) )))

;; "coerce_axiom"
(assert
  (forall ((x Int))
    (! (=> (in_range2 x) (= (to_rep3 (of_rep3 x)) x)) :pattern ((to_rep3
                                                                  (of_rep3 x))) )))

(declare-sort byte1 0)

;; "to_rep"
(declare-fun to_rep4 (byte1) (_ BitVec 8))

;; "of_rep"
(declare-fun of_rep4 ((_ BitVec 8)) byte1)

;; "inversion_axiom"
(assert
  (forall ((x byte1))
    (! (= (of_rep4 (to_rep4 x)) x) :pattern ((to_rep4 x)) )))

;; "range_axiom"
(assert true)

;; "coerce_axiom"
(assert
  (forall ((x (_ BitVec 8)))
    (! (= (to_rep4 (of_rep4 x)) x) :pattern ((to_rep4 (of_rep4 x))) )))

(declare-sort map3 0)

;; "has_bounds"
(declare-fun has_bounds2 (map3
  Int
  Int) Bool)

;; "get"
(declare-fun get1 (map3
  Int) byte1)

;; "slide"
(declare-fun slide (map3
  Int
  Int) map3)

;; "slide_eq"
(assert
  (forall ((a map3) (first Int))
    (! (= (slide a first first) a) :pattern ((slide a first first)) )))

;; "slide_def"
(assert
  (forall ((a map3) (old_first Int) (new_first Int))
    (! (and
         (forall ((i Int))
           (! (= (get1 (slide a old_first new_first) i) (get1
                                                          a
                                                          (- i (- new_first old_first)))) :pattern (
           (get1
             (slide a old_first new_first)
             i)) ))
         (forall ((new_last Int))
           (! (=>
                (has_bounds2
                  a
                  old_first
                  (- new_last (- new_first old_first)))
                (has_bounds2
                  (slide a old_first new_first)
                  new_first
                  new_last)) :pattern ((has_bounds2
                                         (slide a old_first new_first)
                                         new_first
                                         new_last)) ))) :pattern ((slide
                                                                    a
                                                                    old_first
                                                                    new_first)) )))

(declare-sort bit_absorption_number 0)

;; "bit_absorption_number'int"
(declare-fun bit_absorption_numberqtint (bit_absorption_number) Int)

;; "bit_absorption_number'axiom"
(assert
  (forall ((i bit_absorption_number))
    (and
      (<= 0 (bit_absorption_numberqtint i))
      (<= (bit_absorption_numberqtint i) 1599))))

;; "in_range"
(define-fun in_range3 ((x Int)) Bool
  (and (<= 0 x) (<= x 1599)))

;; "to_rep"
(define-fun to_rep5 ((x bit_absorption_number)) Int
  (bit_absorption_numberqtint x))

;; "of_rep"
(declare-fun of_rep5 (Int) bit_absorption_number)

;; "inversion_axiom"
(assert
  (forall ((x bit_absorption_number))
    (! (= (of_rep5 (to_rep5 x)) x) :pattern ((to_rep5 x)) )))

;; "range_axiom"
(assert
  (forall ((x bit_absorption_number))
    (! (in_range3 (to_rep5 x)) :pattern ((to_rep5 x)) )))

;; "coerce_axiom"
(assert
  (forall ((x Int))
    (! (=> (in_range3 x) (= (to_rep5 (of_rep5 x)) x)) :pattern ((to_rep5
                                                                  (of_rep5 x))) )))

(declare-sort rate_bytes_number 0)

;; "rate_bytes_number'int"
(declare-fun rate_bytes_numberqtint (rate_bytes_number) Int)

;; "rate_bytes_number'axiom"
(assert
  (forall ((i rate_bytes_number))
    (and
      (<= 1 (rate_bytes_numberqtint i))
      (<= (rate_bytes_numberqtint i) 199))))

;; "in_range"
(define-fun in_range4 ((x Int)) Bool
  (and (<= 1 x) (<= x 199)))

;; "to_rep"
(define-fun to_rep6 ((x rate_bytes_number)) Int
  (rate_bytes_numberqtint x))

;; "of_rep"
(declare-fun of_rep6 (Int) rate_bytes_number)

;; "inversion_axiom"
(assert
  (forall ((x rate_bytes_number))
    (! (= (of_rep6 (to_rep6 x)) x) :pattern ((to_rep6 x)) )))

;; "range_axiom"
(assert
  (forall ((x rate_bytes_number))
    (! (in_range4 (to_rep6 x)) :pattern ((to_rep6 x)) )))

;; "coerce_axiom"
(assert
  (forall ((x Int))
    (! (=> (in_range4 x) (= (to_rep6 (of_rep6 x)) x)) :pattern ((to_rep6
                                                                  (of_rep6 x))) )))

(declare-sort states 0)

;; "in_range"
(define-fun in_range5 ((x Int)) Bool
  (and (<= 0 x) (<= x 1)))

;; "to_rep"
(declare-fun to_rep7 (states) Int)

;; "of_rep"
(declare-fun of_rep7 (Int) states)

;; "inversion_axiom"
(assert
  (forall ((x states))
    (! (= (of_rep7 (to_rep7 x)) x) :pattern ((to_rep7 x)) )))

;; "range_axiom"
(assert
  (forall ((x states)) (! (in_range5 (to_rep7 x)) :pattern ((to_rep7 x)) )))

;; "coerce_axiom"
(assert
  (forall ((x Int))
    (! (=> (in_range5 x) (= (to_rep7 (of_rep7 x)) x)) :pattern ((to_rep7
                                                                  (of_rep7 x))) )))

(declare-datatypes ((us_split_fields 0))
  (((us_split_fieldsqtmk
    (rec__ada___ada___keccak__keccak_1600__rounds_24__sponge__context__state map2)(rec__ada___ada___keccak__keccak_1600__rounds_24__sponge__context__block map3)(rec__ada___ada___keccak__keccak_1600__rounds_24__sponge__context__bits_absorbed bit_absorption_number)(rec__ada___ada___keccak__keccak_1600__rounds_24__sponge__context__bytes_squeezed byte_absorption_number)(rec__ada___ada___keccak__keccak_1600__rounds_24__sponge__context__out_bytes_ready Bool)(rec__ada___ada___keccak__keccak_1600__rounds_24__sponge__context__rate rate_bytes_number)(rec__ada___ada___keccak__keccak_1600__rounds_24__sponge__context__curr_state states)))))

(declare-datatypes ((us_rep 0))
  (((us_repqtmk (us_split_fields1 us_split_fields)))))

(declare-datatypes ((us_split_fields2 0))
  (((us_split_fieldsqtmk1
    (rec__shake__shake128__context__sponge_ctx us_rep)(rec__shake__shake128__context__update_complete Bool)))))

(declare-datatypes ((us_rep1 0))
  (((us_repqtmk1 (us_split_fields3 us_split_fields2)))))

;; "dynamic_invariant"
(define-fun dynamic_invariant ((temp___expr_1947 us_rep) (temp___is_init_1943 Bool) (temp___skip_constant_1944 Bool) (temp___do_toplevel_1945 Bool) (temp___do_typ_inv_1946 Bool)) Bool
  (and
    (has_bounds1
      (rec__ada___ada___keccak__keccak_1600__rounds_24__sponge__context__state
        (us_split_fields1 temp___expr_1947))
      #x00
      #x04
      #x00
      #x04)
    (has_bounds2
      (rec__ada___ada___keccak__keccak_1600__rounds_24__sponge__context__block
        (us_split_fields1 temp___expr_1947))
      0
      199)))

;; "dynamic_invariant"
(define-fun dynamic_invariant1 ((temp___expr_2898 us_rep1) (temp___is_init_2894 Bool) (temp___skip_constant_2895 Bool) (temp___do_toplevel_2896 Bool) (temp___do_typ_inv_2897 Bool)) Bool
  (and
    (has_bounds1
      (rec__ada___ada___keccak__keccak_1600__rounds_24__sponge__context__state
        (us_split_fields1
          (rec__shake__shake128__context__sponge_ctx
            (us_split_fields3 temp___expr_2898))))
      #x00
      #x04
      #x00
      #x04)
    (has_bounds2
      (rec__ada___ada___keccak__keccak_1600__rounds_24__sponge__context__block
        (us_split_fields1
          (rec__shake__shake128__context__sponge_ctx
            (us_split_fields3 temp___expr_2898))))
      0
      199)))

(declare-sort t 0)

;; "in_range"
(define-fun in_range6 ((x (_ BitVec 16))) Bool
  (and (bvule #x0000 x) (bvule x #x0D00)))

;; "to_rep"
(declare-fun to_rep8 (t) (_ BitVec 16))

;; "of_rep"
(declare-fun of_rep8 ((_ BitVec 16)) t)

;; "inversion_axiom"
(assert
  (forall ((x t)) (! (= (of_rep8 (to_rep8 x)) x) :pattern ((to_rep8 x)) )))

;; "range_axiom"
(assert (forall ((x t)) (! (in_range6 (to_rep8 x)) :pattern ((to_rep8 x)) )))

;; "coerce_axiom"
(assert
  (forall ((x (_ BitVec 16)))
    (! (let ((y (bvurem x #x0D01)))
         (=> (in_range6 y) (= (to_rep8 (of_rep8 x)) y))) :pattern ((to_rep8
                                                                    (of_rep8
                                                                    x))) )))

(declare-sort map4 0)

;; "has_bounds"
(declare-fun has_bounds3 (map4
  Int
  Int) Bool)

;; "get"
(declare-fun get2 (map4
  Int) t)

;; "state_of"
(declare-fun state_of (us_rep1) Int)

;; "state_of__function_guard"
(declare-fun state_of__function_guard (Int
  us_rep1) Bool)

;; "in_range"
(define-fun in_range7 ((x Int)) Bool
  (and (<= 0 x) (<= x 2147483646)))

(declare-datatypes ((t1 0))
  (((tqtmk (rec__first integer)(rec__last integer)))))

;; "mk"
(declare-fun mk (Int
  Int) t1)

;; "mk_def"
(assert
  (forall ((f Int) (l Int))
    (! (=>
         (in_range f)
         (=>
           (in_range l)
           (and
             (= (to_rep (rec__first (mk f l))) f)
             (= (to_rep (rec__last (mk f l))) l)))) :pattern ((mk f l)) )))

;; "dynamic_property"
(define-fun dynamic_property ((range_first Int) (range_last Int) (low Int) (high Int)) Bool
  (and
    (in_range low)
    (and
      (in_range high)
      (=> (<= low high) (and (in_range7 low) (in_range7 high))))))

(declare-datatypes ((us_t 0))
  (((us_tqtmk (elts map3)(rt t1)))))

;; "to_array"
(define-fun to_array ((a us_t)) map3
  (elts a))

;; "of_array"
(define-fun of_array ((a map3) (f Int) (l Int)) us_t
  (us_tqtmk a (mk f l)))

;; "first"
(define-fun first ((a us_t)) Int
  (to_rep (rec__first (rt a))))

;; "last"
(define-fun last ((a us_t)) Int
  (to_rep (rec__last (rt a))))

;; "well_formed"
(define-fun well_formed ((a us_t)) Bool
  (has_bounds2
    (elts a)
    (to_rep (rec__first (rt a)))
    (to_rep (rec__last (rt a)))))

;; "dynamic_invariant"
(define-fun dynamic_invariant2 ((temp___expr_2977 us_t) (temp___is_init_2973 Bool) (temp___skip_constant_2974 Bool) (temp___do_toplevel_2975 Bool) (temp___do_typ_inv_2976 Bool)) Bool
  (and
    (=>
      (not (= temp___skip_constant_2974 true))
      (dynamic_property
        0
        2147483646
        (first temp___expr_2977)
        (last temp___expr_2977)))
    (well_formed temp___expr_2977)))

;; "convert"
(declare-fun convert (map1) map3)

;; "convert__def"
(assert
  (forall ((a map1))
    (forall ((temp___3937 Int))
      (= (to_rep1 (get a temp___3937)) (to_rep4
                                         (get1 (convert a) temp___3937))))))

;; "convert"
(declare-fun convert1 (map3) map1)

;; "convert__def"
(assert
  (forall ((a map3))
    (forall ((temp___3938 Int))
      (= (to_rep4 (get1 a temp___3938)) (to_rep1
                                          (get (convert1 a) temp___3938))))))

;; "mlkem__xof_then_samplentt__a__aggregate_def"
(declare-fun mlkem__xof_then_samplentt__a__aggregate_def ((_ BitVec 16)) map4)

;; "mod"
(define-fun mod1 ((x Int) (y Int)) Int
  (ite (<= 0 y) (mod x y) (- (mod (- x) y))))

;; "state_of"
(declare-fun state_of1 (us_rep) Int)

;; "state_of__function_guard"
(declare-fun state_of__function_guard1 (Int
  us_rep) Bool)

;; "in_queue_bit_length"
(declare-fun in_queue_bit_length (us_rep) Int)

;; "in_queue_bit_length__function_guard"
(declare-fun in_queue_bit_length__function_guard (Int
  us_rep) Bool)

;; "rate_of"
(declare-fun rate_of (us_rep) Int)

;; "rate_of__function_guard"
(declare-fun rate_of__function_guard (Int
  us_rep) Bool)

;; "can_absorb"
(declare-fun can_absorb (us_rep1) Bool)

;; "in_range"
(define-fun in_range8 ((x Int)) Bool
  (and (<= 1 x) (<= x 1599)))

;; "dynamic_invariant"
(define-fun dynamic_invariant3 ((temp___expr_2043 Int) (temp___is_init_2039 Bool) (temp___skip_constant_2040 Bool) (temp___do_toplevel_2041 Bool) (temp___do_typ_inv_2042 Bool)) Bool
  (and
    (in_range8 temp___expr_2043)
    (=>
      (= temp___is_init_2039 true)
      (=> (= temp___do_toplevel_2041 true) (= (mod1 temp___expr_2043 8) 0)))))

;; "in_range"
(define-fun in_range9 ((x Int)) Bool
  (and (<= 0 x) (<= x 2)))

;; "state_of__post_axiom"
(assert
  (forall ((param__ctx us_rep))
    (! (=>
         (dynamic_invariant param__ctx true false true true)
         (let ((result (state_of1 param__ctx)))
           (=>
             (state_of__function_guard1 result param__ctx)
             (in_range5 result)))) :pattern ((state_of1 param__ctx)) )))

;; "state_of__def_axiom"
(assert
  (forall ((param__ctx us_rep))
    (! (= (state_of1 param__ctx) (to_rep7
                                   (rec__ada___ada___keccak__keccak_1600__rounds_24__sponge__context__curr_state
                                     (us_split_fields1 param__ctx)))) :pattern (
    (state_of1
      param__ctx)) )))

;; "in_queue_bit_length__post_axiom"
(assert
  (forall ((param__ctx us_rep))
    (! (=>
         (dynamic_invariant param__ctx true false true true)
         (let ((result (in_queue_bit_length param__ctx)))
           (=>
             (in_queue_bit_length__function_guard result param__ctx)
             (and (< result 1600) (in_range1 result))))) :pattern ((in_queue_bit_length
                                                                    param__ctx)) )))

;; "in_queue_bit_length__def_axiom"
(assert
  (forall ((param__ctx us_rep))
    (! (= (in_queue_bit_length param__ctx) (to_rep5
                                             (rec__ada___ada___keccak__keccak_1600__rounds_24__sponge__context__bits_absorbed
                                               (us_split_fields1 param__ctx)))) :pattern (
    (in_queue_bit_length
      param__ctx)) )))

;; "rate_of__post_axiom"
(assert
  (forall ((param__ctx us_rep))
    (! (=>
         (dynamic_invariant param__ctx true false true true)
         (let ((result (rate_of param__ctx)))
           (=>
             (rate_of__function_guard result param__ctx)
             (dynamic_invariant3 result true false true true)))) :pattern (
    (rate_of
      param__ctx)) )))

;; "rate_of__def_axiom"
(assert
  (forall ((param__ctx us_rep))
    (! (= (rate_of param__ctx) (* (to_rep6
                                    (rec__ada___ada___keccak__keccak_1600__rounds_24__sponge__context__rate
                                      (us_split_fields1 param__ctx))) 8)) :pattern (
    (rate_of
      param__ctx)) )))

;; "can_absorb__post_axiom"
(assert true)

;; "can_absorb__def_axiom"
(assert
  (forall ((param__ctx us_rep1))
    (! (and
         (forall ((temp___2950 us_rep))
           (in_queue_bit_length__function_guard
             (in_queue_bit_length temp___2950)
             temp___2950))
         (and
           (forall ((temp___2952 us_rep))
             (in_queue_bit_length__function_guard
               (in_queue_bit_length temp___2952)
               temp___2952))
           (and
             (forall ((temp___2954 us_rep))
               (rate_of__function_guard (rate_of temp___2954) temp___2954))
             (=
               (= (can_absorb param__ctx) true)
               (and
                 (= (mod1
                      (let ((temp___2950 (rec__shake__shake128__context__sponge_ctx
                                           (us_split_fields3 param__ctx))))
                        (in_queue_bit_length temp___2950))
                      8) 0)
                 (< (let ((temp___2952 (rec__shake__shake128__context__sponge_ctx
                                         (us_split_fields3 param__ctx))))
                      (in_queue_bit_length temp___2952)) (let ((temp___2954 
                                                           (rec__shake__shake128__context__sponge_ctx
                                                             (us_split_fields3
                                                               param__ctx))))
                                                           (rate_of
                                                             temp___2954)))))))) :pattern (
    (can_absorb
      param__ctx)) )))

;; "state_of__post_axiom"
(assert
  (forall ((param__ctx us_rep1))
    (! (=>
         (dynamic_invariant1 param__ctx true false true true)
         (let ((result (state_of param__ctx)))
           (=>
             (state_of__function_guard result param__ctx)
             (in_range9 result)))) :pattern ((state_of param__ctx)) )))

;; "state_of__def_axiom"
(assert
  (forall ((param__ctx us_rep1))
    (! (and
         (forall ((temp___2964 us_rep))
           (state_of__function_guard1 (state_of1 temp___2964) temp___2964))
         (= (state_of param__ctx) (ite (= (let ((temp___2964 (rec__shake__shake128__context__sponge_ctx
                                                               (us_split_fields3
                                                                 param__ctx))))
                                            (state_of1 temp___2964)) 1)
                                    2
                                    (ite (or
                                           (= (rec__shake__shake128__context__update_complete
                                                (us_split_fields3 param__ctx)) true)
                                           (not
                                             (= (can_absorb param__ctx) true)))
                                      1
                                      0)))) :pattern ((state_of param__ctx)) )))

;; Goal "def'vc"
;; File "mlkem.adb", line 1304, characters 0-0
(assert
  (not true))

(check-sat)
